172018
31,6,48,36,83,52,74,14,23,0,86,9,58,65,43,42,78,90,59,95,77,2,93,69,17,3,60,46,13,49,67,18,105,7,96,64,30,97,12,51,4,29,28,54,22,75,26,27,57,101,73,25,33,82,56,79,88,92,11,91,8,98,102,34,81,71,24,85,45,68,87,5,76,61,1,32,38,35,100,104,37,103,94,70,53,66,40,10,84,47,72,21,20,16,89,63,15,19,55,39,41,80,44,99,50,62,31